NAME : traveling-santa-2018-prime-paths.30659.tour
COMMENT : Length = 30659
COMMENT : Found by LKH [Keld Helsgaun] Sun Jun 12 20:00:22 2022
TYPE : TOUR
DIMENSION : 100
TOUR_SECTION
1
30
12
11
70
20
78
59
85
87
90
6
15
60
37
17
93
68
84
73
48
71
80
27
14
49
29
81
2
86
76
34
41
39
61
32
96
18
3
36
46
79
10
13
57
40
35
55
88
19
89
24
58
62
69
64
92
43
51
65
26
7
38
54
31
8
33
42
16
56
5
25
4
72
22
98
67
44
99
23
28
77
82
97
100
94
91
53
47
63
83
21
74
75
50
66
9
95
52
45
-1
EOF
